91
0 42 10 60 78 71 81 88 32 69 
77 76 62 74 2 45 21 37 36 20 
13 16 34 9 7 47 83 50 89 68 
73 29 40 63 4 31 65 55 80 33 
59 87 28 43 51 64 5 48 19 72 
46 82 58 66 12 85 15 86 23 39 
24 79 22 30 67 52 70 3 61 27 
17 57 38 53 44 6 18 25 26 41 
11 1 90 84 35 56 8 75 14 54 
49 
